Instance: Data/Instances_txt/inst_100_30_3.txt
SetUpTime: 49.61421203613281

Gurobi 10.0.1 (mac64[x86]) logging started Di  1 Aug 17:53:18 2023

Set parameter LogFile to value "Output/MILP_inst_100_30_3_2023-08-01_16-28-50.txt"
Set parameter TimeLimit to value 2700

Gurobi 10.0.1 (mac64[x86]) logging started Di  1 Aug 17:53:18 2023

Set parameter LogFile to value "Output/MILP_inst_100_30_3_2023-08-01_16-28-50.txt"
Gurobi Optimizer version 10.0.1 build v10.0.1rc0 (mac64[x86])

CPU model: Intel(R) Core(TM) i5-1038NG7 CPU @ 2.00GHz
Thread count: 4 physical cores, 8 logical processors, using up to 8 threads

Optimize a model with 201 rows, 60261 columns and 379989 nonzeros
Model fingerprint: 0xc8f502ea
Variable types: 0 continuous, 60261 integer (0 binary)
Coefficient statistics:
  Matrix range     [1e+00, 1e+00]
  Objective range  [6e+00, 1e+04]
  Bounds range     [1e+00, 1e+00]
  RHS range        [1e+00, 1e+00]
Presolve time: 0.38s
Presolved: 201 rows, 60261 columns, 379989 nonzeros
Variable types: 0 continuous, 60261 integer (60261 binary)

Starting sifting (using dual simplex for sub-problems)...

    Iter     Pivots    Primal Obj      Dual Obj        Time
       0          0     infinity      0.0000000e+00      1s
       1       1091   1.0200000e+08   3.0063895e+02      1s
       2       2544   1.0200000e+08   5.8834979e+02      1s
       3       3449   1.0200000e+08   7.6506119e+02      1s
       4       4645   1.0200000e+08   1.0385617e+03      1s
       5       5764   1.0200000e+08   1.1875217e+03      1s
       6       6702   1.0200000e+08   1.4474745e+03      1s
       7       8022   1.0200000e+08   1.6121654e+03      1s

Sifting complete


Root relaxation: objective 3.352511e+04, 23291 iterations, 0.68 seconds (0.76 work units)

    Nodes    |    Current Node    |     Objective Bounds      |     Work
 Expl Unexpl |  Obj  Depth IntInf | Incumbent    BestBd   Gap | It/Node Time

     0     0 33525.1082    0  137          - 33525.1082      -     -    1s
     0     0 33526.1826    0  144          - 33526.1826      -     -    1s
     0     0 33529.8106    0  155          - 33529.8106      -     -    2s
     0     0 33533.8031    0  151          - 33533.8031      -     -    2s
     0     0 33540.5319    0  153          - 33540.5319      -     -    2s
     0     0 33546.3526    0  138          - 33546.3526      -     -    2s
     0     0 33548.7926    0  143          - 33548.7926      -     -    2s
     0     0 33550.3333    0  145          - 33550.3333      -     -    2s
     0     0 33551.8660    0  139          - 33551.8660      -     -    2s
     0     0 33553.6493    0  133          - 33553.6493      -     -    2s
     0     0 33555.2433    0  137          - 33555.2433      -     -    2s
     0     0 33651.2256    0  154          - 33651.2256      -     -    5s
     0     0 33654.8265    0  168          - 33654.8265      -     -    5s
     0     0 33657.7546    0  175          - 33657.7546      -     -    6s
     0     0 33659.7882    0  164          - 33659.7882      -     -    6s
     0     0 33662.6357    0  168          - 33662.6357      -     -    6s
     0     0 33665.4457    0  183          - 33665.4457      -     -    6s
     0     0 33668.1567    0  178          - 33668.1567      -     -    6s
     0     0 33672.3618    0  180          - 33672.3618      -     -    6s
     0     0 33676.6986    0  183          - 33676.6986      -     -    7s
     0     0 33681.6839    0  177          - 33681.6839      -     -    7s
     0     0 33683.3420    0  179          - 33683.3420      -     -    7s
     0     0 33754.0191    0  200          - 33754.0191      -     -    9s
     0     0 33754.0480    0  200          - 33754.0480      -     -    9s
     0     0 33754.4681    0  200          - 33754.4681      -     -    9s
     0     0 33755.0303    0  200          - 33755.0303      -     -   10s
     0     0 33755.3014    0  199          - 33755.3014      -     -   10s
     0     0 33755.8285    0  198          - 33755.8285      -     -   10s
     0     0 33756.0481    0  200          - 33756.0481      -     -   10s
     0     0 33756.1774    0  198          - 33756.1774      -     -   10s
     0     0 33756.2727    0  200          - 33756.2727      -     -   10s
     0     0 33756.3348    0  195          - 33756.3348      -     -   10s
     0     0 33756.3784    0  198          - 33756.3784      -     -   10s
     0     0 33763.6095    0  201          - 33763.6095      -     -   10s
     0     0 33764.0207    0  202          - 33764.0207      -     -   10s
     0     0 33764.6844    0  204          - 33764.6844      -     -   10s
     0     0 33765.2672    0  203          - 33765.2672      -     -   11s
     0     0 33765.6479    0  203          - 33765.6479      -     -   11s
     0     0 33766.0995    0  198          - 33766.0995      -     -   11s
     0     0 33766.5072    0  202          - 33766.5072      -     -   11s
     0     0 33767.1343    0  201          - 33767.1343      -     -   11s
     0     0 33767.4553    0  209          - 33767.4553      -     -   11s
     0     0 33767.9028    0  199          - 33767.9028      -     -   11s
     0     0 33768.3782    0  195          - 33768.3782      -     -   11s
     0     0 33768.4655    0  212          - 33768.4655      -     -   11s
     0     0 33768.6972    0  207          - 33768.6972      -     -   11s
     0     0 33768.7141    0  205          - 33768.7141      -     -   11s
     0     0 33768.7546    0  205          - 33768.7546      -     -   11s
     0     0 33768.7701    0  205          - 33768.7701      -     -   11s
     0     0 33768.7701    0  206          - 33768.7701      -     -   11s
     0     0 33854.8844    0  208          - 33854.8844      -     -   15s
     0     0 33857.3371    0  210          - 33857.3371      -     -   15s
     0     0 33858.3526    0  209          - 33858.3526      -     -   15s
     0     0 33858.7174    0  214          - 33858.7174      -     -   16s
     0     0 33859.0792    0  212          - 33859.0792      -     -   16s
     0     0 33859.3864    0  211          - 33859.3864      -     -   16s
     0     0 33859.6233    0  210          - 33859.6233      -     -   16s
     0     0 33861.0913    0  209          - 33861.0913      -     -   16s
     0     0 33862.5814    0  212          - 33862.5814      -     -   16s
     0     0 33863.4924    0  211          - 33863.4924      -     -   16s
     0     0 33863.7230    0  215          - 33863.7230      -     -   16s
     0     0 33899.9260    0  209          - 33899.9260      -     -   25s
     0     0 33900.2161    0  210          - 33900.2161      -     -   25s
     0     0 33900.3807    0  207          - 33900.3807      -     -   25s
     0     0 33900.6789    0  210          - 33900.6789      -     -   26s
     0     0 33900.8986    0  206          - 33900.8986      -     -   26s
     0     0 33901.1301    0  208          - 33901.1301      -     -   26s
     0     0 33901.2184    0  215          - 33901.2184      -     -   26s
     0     0 33901.2222    0  206          - 33901.2222      -     -   26s
     0     0 33907.0908    0  208          - 33907.0908      -     -   26s
     0     0 33907.1716    0  207          - 33907.1716      -     -   27s
     0     0 33952.6393    0  204          - 33952.6393      -     -   29s
     0     0 33968.6485    0  213          - 33968.6485      -     -   30s
     0     0 33968.6821    0  214          - 33968.6821      -     -   30s
     0     0 33968.6876    0  213          - 33968.6876      -     -   30s
     0     0 33968.7111    0  212          - 33968.7111      -     -   30s
     0     0 33968.7404    0  214          - 33968.7404      -     -   30s
     0     0 33968.7646    0  212          - 33968.7646      -     -   30s
     0     0 33968.7646    0  213          - 33968.7646      -     -   30s
     0     0 33968.8027    0  214          - 33968.8027      -     -   30s
     0     0 33968.8406    0  214          - 33968.8406      -     -   30s
     0     0 33968.9014    0  213          - 33968.9014      -     -   30s
     0     0 33968.9218    0  213          - 33968.9218      -     -   30s
     0     0 33979.5658    0  223          - 33979.5658      -     -   31s
     0     0 33979.5658    0  222          - 33979.5658      -     -   31s
     0     0 33979.6569    0  221          - 33979.6569      -     -   31s
     0     0 33980.7380    0  228          - 33980.7380      -     -   31s
     0     0 33980.7412    0  230          - 33980.7412      -     -   31s
     0     0 33980.7414    0  229          - 33980.7414      -     -   31s
     0     0 33980.8752    0  227          - 33980.8752      -     -   32s
     0     0 33995.3827    0  227          - 33995.3827      -     -   33s
     0     0 33995.6868    0  220          - 33995.6868      -     -   33s
     0     0 33995.8836    0  220          - 33995.8836      -     -   33s
     0     0 33996.1117    0  222          - 33996.1117      -     -   34s
     0     0 33996.1975    0  223          - 33996.1975      -     -   34s
     0     0 33996.4482    0  218          - 33996.4482      -     -   34s
     0     0 33996.4914    0  224          - 33996.4914      -     -   34s
     0     0 33996.5512    0  222          - 33996.5512      -     -   34s
     0     0 33996.5742    0  215          - 33996.5742      -     -   34s
     0     0 33996.6200    0  214          - 33996.6200      -     -   34s
     0     0 33996.6400    0  218          - 33996.6400      -     -   34s
H    0     0                    37077.000000 34009.1658  8.27%     -   35s
H    0     0                    37045.000000 34009.1658  8.19%     -   35s
     0     0 34009.3630    0  230 37045.0000 34009.3630  8.19%     -   35s
     0     0 34009.6302    0  225 37045.0000 34009.6302  8.19%     -   35s
     0     0 34009.9512    0  246 37045.0000 34009.9512  8.19%     -   35s
     0     0 34010.0747    0  241 37045.0000 34010.0747  8.19%     -   36s
     0     0 34010.1407    0  252 37045.0000 34010.1407  8.19%     -   36s
     0     0 34010.1448    0  250 37045.0000 34010.1448  8.19%     -   36s
     0     0 34010.1471    0  238 37045.0000 34010.1471  8.19%     -   36s
     0     0 34010.1473    0  238 37045.0000 34010.1473  8.19%     -   36s
     0     0 34011.5751    0  248 37045.0000 34011.5751  8.19%     -   36s
     0     0 34011.5988    0  243 37045.0000 34011.5988  8.19%     -   36s
     0     0 34011.6096    0  244 37045.0000 34011.6096  8.19%     -   36s
     0     0 34011.6111    0  236 37045.0000 34011.6111  8.19%     -   36s
     0     0 34012.4354    0  240 37045.0000 34012.4354  8.19%     -   37s
     0     0 34012.4356    0  233 37045.0000 34012.4356  8.19%     -   37s
     0     0 34012.6850    0  252 37045.0000 34012.6850  8.19%     -   37s
     0     0 34012.7223    0  246 37045.0000 34012.7223  8.19%     -   37s
     0     0 34012.8557    0  252 37045.0000 34012.8557  8.19%     -   37s
     0     0 34012.8644    0  252 37045.0000 34012.8644  8.19%     -   37s
     0     0 34012.8644    0  252 37045.0000 34012.8644  8.19%     -   37s
     0     0 34032.5219    0  253 37045.0000 34032.5219  8.13%     -   39s
H    0     0                    34445.000000 34032.5219  1.20%     -   54s
     0     0 34035.6369    0  259 34445.0000 34035.6369  1.19%     -   54s
     0     0 34036.6476    0  261 34445.0000 34036.6476  1.19%     -   55s
     0     0 34036.6982    0  270 34445.0000 34036.6982  1.19%     -   55s
     0     0 34036.7054    0  268 34445.0000 34036.7054  1.19%     -   55s
     0     0 34036.7090    0  267 34445.0000 34036.7090  1.19%     -   55s
     0     0 34036.7136    0  269 34445.0000 34036.7136  1.19%     -   55s
     0     0 34036.7168    0  269 34445.0000 34036.7168  1.19%     -   55s
     0     0 34036.7171    0  270 34445.0000 34036.7171  1.19%     -   55s
     0     0 34036.7262    0  269 34445.0000 34036.7262  1.19%     -   55s
     0     0 34036.7263    0  268 34445.0000 34036.7263  1.19%     -   55s
     0     0 34036.7266    0  268 34445.0000 34036.7266  1.19%     -   55s
     0     0 34049.4375    0  266 34445.0000 34049.4375  1.15%     -   56s
     0     0 34049.4375    0  127 34445.0000 34049.4375  1.15%     -   60s
H    0     0                    34411.000000 34049.4375  1.05%     -   60s
     0     0 34049.4375    0  185 34411.0000 34049.4375  1.05%     -   61s
H    0     0                    34400.000000 34049.4375  1.02%     -   61s
     0     0 34049.4375    0  191 34400.0000 34049.4375  1.02%     -   61s
     0     0 34049.4375    0  209 34400.0000 34049.4375  1.02%     -   63s
     0     0 34049.4375    0  213 34400.0000 34049.4375  1.02%     -   63s
     0     0 34049.4375    0  223 34400.0000 34049.4375  1.02%     -   64s
     0     0 34050.6250    0  218 34400.0000 34050.6250  1.02%     -   64s
     0     0 34050.7349    0  230 34400.0000 34050.7349  1.02%     -   64s
     0     0 34050.8332    0  221 34400.0000 34050.8332  1.02%     -   64s
     0     0 34051.5201    0  210 34400.0000 34051.5201  1.01%     -   65s
     0     0 34051.5759    0  224 34400.0000 34051.5759  1.01%     -   65s
     0     0 34051.5843    0  213 34400.0000 34051.5843  1.01%     -   65s
     0     0 34051.5906    0  231 34400.0000 34051.5906  1.01%     -   65s
     0     0 34051.5906    0  231 34400.0000 34051.5906  1.01%     -   65s
     0     0 34051.5993    0  214 34400.0000 34051.5993  1.01%     -   65s
     0     0 34051.6096    0  233 34400.0000 34051.6096  1.01%     -   65s
     0     0 34051.6146    0  233 34400.0000 34051.6146  1.01%     -   65s
     0     0 34052.6664    0  224 34400.0000 34052.6664  1.01%     -   65s
     0     0 34052.7553    0  231 34400.0000 34052.7553  1.01%     -   65s
     0     0 34052.8193    0  231 34400.0000 34052.8193  1.01%     -   65s
     0     0 34052.8586    0  225 34400.0000 34052.8586  1.01%     -   65s
     0     0 34052.8985    0  237 34400.0000 34052.8985  1.01%     -   65s
     0     0 34052.9283    0  239 34400.0000 34052.9283  1.01%     -   65s
     0     0 34052.9335    0  241 34400.0000 34052.9335  1.01%     -   65s
     0     0 34052.9591    0  235 34400.0000 34052.9591  1.01%     -   65s
     0     0 34053.1616    0  265 34400.0000 34053.1616  1.01%     -   65s
     0     0 34057.8954    0  226 34400.0000 34057.8954  0.99%     -   66s
     0     0 34060.0515    0  259 34400.0000 34060.0515  0.99%     -   67s
     0     0 34060.2639    0  260 34400.0000 34060.2639  0.99%     -   67s
     0     0 34060.3037    0  263 34400.0000 34060.3037  0.99%     -   67s
     0     0 34060.3229    0  266 34400.0000 34060.3229  0.99%     -   67s
     0     0 34060.3255    0  265 34400.0000 34060.3255  0.99%     -   67s
     0     0 34060.3406    0  264 34400.0000 34060.3406  0.99%     -   67s
     0     0 34060.3423    0  263 34400.0000 34060.3423  0.99%     -   67s
     0     0 34060.3424    0  264 34400.0000 34060.3424  0.99%     -   67s
     0     0 34060.3456    0  262 34400.0000 34060.3456  0.99%     -   67s
     0     0 34060.3482    0  265 34400.0000 34060.3482  0.99%     -   67s
     0     0 34060.3501    0  265 34400.0000 34060.3501  0.99%     -   67s
     0     0 34060.4562    0  265 34400.0000 34060.4562  0.99%     -   67s
     0     0 34063.0579    0  265 34400.0000 34063.0579  0.98%     -   68s
     0     0 34063.8123    0  273 34400.0000 34063.8123  0.98%     -   69s
     0     0 34064.0796    0  269 34400.0000 34064.0796  0.98%     -   69s
     0     0 34067.2423    0  260 34400.0000 34067.2423  0.97%     -   70s
     0     0 34067.2423    0  256 34400.0000 34067.2423  0.97%     -   70s
H    0     0                    34364.000000 34067.2423  0.86%     -   72s
     0     0 34067.2423    0  126 34364.0000 34067.2423  0.86%     -   74s
     0     0 34067.2423    0  180 34364.0000 34067.2423  0.86%     -   75s
     0     0 34067.2423    0  162 34364.0000 34067.2423  0.86%     -   76s
     0     0 34067.2423    0  201 34364.0000 34067.2423  0.86%     -   76s
     0     0 34067.2423    0  196 34364.0000 34067.2423  0.86%     -   77s
     0     0 34067.2423    0  229 34364.0000 34067.2423  0.86%     -   77s
     0     0 34067.2423    0  236 34364.0000 34067.2423  0.86%     -   78s
     0     0 34067.2423    0  238 34364.0000 34067.2423  0.86%     -   78s
     0     0 34067.2423    0  252 34364.0000 34067.2423  0.86%     -   78s
     0     0 34067.2423    0  255 34364.0000 34067.2423  0.86%     -   78s
     0     0 34067.2423    0  255 34364.0000 34067.2423  0.86%     -   78s
     0     0 34068.2963    0  271 34364.0000 34068.2963  0.86%     -   79s
     0     0 34070.3112    0  250 34364.0000 34070.3112  0.85%     -   79s
     0     0 34070.5984    0  263 34364.0000 34070.5984  0.85%     -   79s
     0     0 34073.0985    0  262 34364.0000 34073.0985  0.85%     -   80s
     0     0 34073.0985    0  260 34364.0000 34073.0985  0.85%     -   80s
     0     2 34073.0985    0  258 34364.0000 34073.0985  0.85%     -   83s
    11    16 34095.4959    3  239 34364.0000 34084.3850  0.81%   758   85s
H   46    48                    34275.000000 34096.9551  0.52%   637   88s
    61    51 34220.5997    9  205 34275.0000 34096.9551  0.52%   588   90s
*   77    56              11    34243.000000 34096.9551  0.43%   557   91s
   132    81 34219.1713    9  152 34243.0000 34098.0541  0.42%   519   95s
   301   108 34187.2234   16  125 34243.0000 34103.7969  0.41%   382  100s
   417   112 34149.3921    8  266 34243.0000 34121.6163  0.35%   371  111s
   429   120 34222.1523    9  248 34243.0000 34121.6163  0.35%   361  115s
   450   136 34192.9613    9  205 34243.0000 34121.6163  0.35%   364  120s
   487   159 34121.6163   26  150 34243.0000 34121.6163  0.35%   370  125s
   815   144 34140.9464   32  113 34243.0000 34129.6179  0.33%   293  130s
  1505    88 34200.1111   40   50 34243.0000 34180.0961  0.18%   212  135s

Cutting planes:
  Gomory: 6
  Cover: 3
  Clique: 81
  Flow cover: 1
  Zero half: 8
  RLT: 184

Explored 1797 nodes (409059 simplex iterations) in 135.93 seconds (187.53 work units)
Thread count was 8 (of 8 available processors)

Solution count 8: 34243 34275 34364 ... 37077

Optimal solution found (tolerance 1.00e-04)
Best objective 3.424300000000e+04, best bound 3.424300000000e+04, gap 0.0000%

User-callback calls 28396, time in user-callback 0.04 sec

=========================

OUTPUT STATISTICS
Relaxed: false
Time since start: 186.81434607505798
SetUpTime: 49.61421203613281
Objective value: 34243.0
Number of variables: 60261
Solving time: 137.1736159324646
